experiment/data/lkh-res/Vrp-Set-M-n151/Vrp-Set-M-n151-lkh/0.lkh1.log
PARAMETER_FILE = baseline_results/cvrp_lkh/Vrp-Set-M-n151/Vrp-Set-M-n151-lkh/0.lkh1.par
Reading PROBLEM_FILE: "baseline_results/cvrp_lkh/Vrp-Set-M-n151/Vrp-Set-M-n151-lkh/0.lkh1.vrp" ... done
ASCENT_CANDIDATES = 50
BACKBONE_TRIALS = 0
BACKTRACKING = NO
# BWTSP =
# CANDIDATE_FILE =
CANDIDATE_SET_TYPE = ALPHA
# DISTANCE =
DEPOT = 1
# EDGE_FILE =
EXCESS = 0.00662252
EXTERNAL_SALESMEN = 0
EXTRA_CANDIDATES = 0 
EXTRA_CANDIDATE_SET_TYPE = QUADRANT
GAIN23 = NO
GAIN_CRITERION = YES
INITIAL_PERIOD = 100
INITIAL_STEP_SIZE = 1
INITIAL_TOUR_ALGORITHM = WALK
# INITIAL_TOUR_FILE = 
INITIAL_TOUR_FRACTION = 1.000
# INPUT_TOUR_FILE = 
KICK_TYPE = 4
KICKS = 1
# MAX_BREADTH =
MAKESPAN = NO
MAX_CANDIDATES = 5 
MAX_SWAPS = 0
MAX_TRIALS = 10000
# MERGE_TOUR_FILE =
MOVE_TYPE = 5 SPECIAL
MTSP_MIN_SIZE = 1
MTSP_MAX_SIZE = 150
# MTSP_SOLUTION_FILE = 
# NONSEQUENTIAL_MOVE_TYPE = 5
# OPTIMUM =
OUTPUT_TOUR_FILE = baseline_results/cvrp_lkh/Vrp-Set-M-n151/Vrp-Set-M-n151-lkh/0.lkh1.tour
PATCHING_A = 1 
PATCHING_C = 0 
# PI_FILE = 
POPMUSIC_INITIAL_TOUR = NO
POPMUSIC_MAX_NEIGHBORS = 5
POPMUSIC_SAMPLE_SIZE = 10
POPMUSIC_SOLUTIONS = 50
POPMUSIC_TRIALS = 1
POPULATION_SIZE = 10
PRECISION = 100
PROBLEM_FILE = baseline_results/cvrp_lkh/Vrp-Set-M-n151/Vrp-Set-M-n151-lkh/0.lkh1.vrp
RECOMBINATION = IPT
RESTRICTED_SEARCH = YES
RUNS = 1
SALESMEN = 12
SCALE = 1
SEED = 1234
# SINTEF_SOLUTION_FILE = 
STOP_AT_OPTIMUM = YES
SUBGRADIENT = YES
# SUBPROBLEM_SIZE =
# SUBPROBLEM_TOUR_FILE = 
SUBSEQUENT_MOVE_TYPE = 5 SPECIAL
SUBSEQUENT_PATCHING = YES
# TIME_LIMIT =
# TOTAL_TIME_LIMIT =
# TOUR_FILE = 
TRACE_LEVEL = 1
VEHICLES = 12

Lower bound = 82961.2, Ascent time = 0.03 sec.
Cand.min = 4, Cand.avg = 5.0, Cand.max = 5
Preprocessing time = 0.03 sec.
* 1: Cost = 0_110944, Time = 0.01 sec. 
Writing OUTPUT_TOUR_FILE: "baseline_results/cvrp_lkh/Vrp-Set-M-n151/Vrp-Set-M-n151-lkh/0.lkh1.tour" ... done
* 2: Cost = 0_109389, Time = 0.02 sec. 
Writing OUTPUT_TOUR_FILE: "baseline_results/cvrp_lkh/Vrp-Set-M-n151/Vrp-Set-M-n151-lkh/0.lkh1.tour" ... done
* 5: Cost = 0_108819, Time = 0.02 sec. 
Writing OUTPUT_TOUR_FILE: "baseline_results/cvrp_lkh/Vrp-Set-M-n151/Vrp-Set-M-n151-lkh/0.lkh1.tour" ... done
* 9: Cost = 0_108532, Time = 0.03 sec. 
Writing OUTPUT_TOUR_FILE: "baseline_results/cvrp_lkh/Vrp-Set-M-n151/Vrp-Set-M-n151-lkh/0.lkh1.tour" ... done
* 11: Cost = 0_107479, Time = 0.03 sec. 
Writing OUTPUT_TOUR_FILE: "baseline_results/cvrp_lkh/Vrp-Set-M-n151/Vrp-Set-M-n151-lkh/0.lkh1.tour" ... done
* 13: Cost = 0_107477, Time = 0.03 sec. 
Writing OUTPUT_TOUR_FILE: "baseline_results/cvrp_lkh/Vrp-Set-M-n151/Vrp-Set-M-n151-lkh/0.lkh1.tour" ... done
* 15: Cost = 0_107359, Time = 0.04 sec. 
Writing OUTPUT_TOUR_FILE: "baseline_results/cvrp_lkh/Vrp-Set-M-n151/Vrp-Set-M-n151-lkh/0.lkh1.tour" ... done
* 18: Cost = 0_107117, Time = 0.04 sec. 
Writing OUTPUT_TOUR_FILE: "baseline_results/cvrp_lkh/Vrp-Set-M-n151/Vrp-Set-M-n151-lkh/0.lkh1.tour" ... done
* 21: Cost = 0_106863, Time = 0.05 sec. 
Writing OUTPUT_TOUR_FILE: "baseline_results/cvrp_lkh/Vrp-Set-M-n151/Vrp-Set-M-n151-lkh/0.lkh1.tour" ... done
* 28: Cost = 0_106837, Time = 0.07 sec. 
Writing OUTPUT_TOUR_FILE: "baseline_results/cvrp_lkh/Vrp-Set-M-n151/Vrp-Set-M-n151-lkh/0.lkh1.tour" ... done
* 32: Cost = 0_106106, Time = 0.08 sec. 
Writing OUTPUT_TOUR_FILE: "baseline_results/cvrp_lkh/Vrp-Set-M-n151/Vrp-Set-M-n151-lkh/0.lkh1.tour" ... done
* 46: Cost = 0_105920, Time = 0.11 sec. 
Writing OUTPUT_TOUR_FILE: "baseline_results/cvrp_lkh/Vrp-Set-M-n151/Vrp-Set-M-n151-lkh/0.lkh1.tour" ... done
* 56: Cost = 0_105753, Time = 0.14 sec. 
Writing OUTPUT_TOUR_FILE: "baseline_results/cvrp_lkh/Vrp-Set-M-n151/Vrp-Set-M-n151-lkh/0.lkh1.tour" ... done
* 58: Cost = 0_105732, Time = 0.15 sec. 
Writing OUTPUT_TOUR_FILE: "baseline_results/cvrp_lkh/Vrp-Set-M-n151/Vrp-Set-M-n151-lkh/0.lkh1.tour" ... done
* 76: Cost = 0_105499, Time = 0.19 sec. 
Writing OUTPUT_TOUR_FILE: "baseline_results/cvrp_lkh/Vrp-Set-M-n151/Vrp-Set-M-n151-lkh/0.lkh1.tour" ... done
* 92: Cost = 0_105392, Time = 0.25 sec. 
Writing OUTPUT_TOUR_FILE: "baseline_results/cvrp_lkh/Vrp-Set-M-n151/Vrp-Set-M-n151-lkh/0.lkh1.tour" ... done
* 120: Cost = 0_105332, Time = 0.30 sec. 
Writing OUTPUT_TOUR_FILE: "baseline_results/cvrp_lkh/Vrp-Set-M-n151/Vrp-Set-M-n151-lkh/0.lkh1.tour" ... done
* 316: Cost = 0_105144, Time = 0.80 sec. 
Writing OUTPUT_TOUR_FILE: "baseline_results/cvrp_lkh/Vrp-Set-M-n151/Vrp-Set-M-n151-lkh/0.lkh1.tour" ... done
* 332: Cost = 0_105133, Time = 0.82 sec. 
Writing OUTPUT_TOUR_FILE: "baseline_results/cvrp_lkh/Vrp-Set-M-n151/Vrp-Set-M-n151-lkh/0.lkh1.tour" ... done
* 365: Cost = 0_105110, Time = 0.91 sec. 
Writing OUTPUT_TOUR_FILE: "baseline_results/cvrp_lkh/Vrp-Set-M-n151/Vrp-Set-M-n151-lkh/0.lkh1.tour" ... done
* 376: Cost = 0_105015, Time = 0.92 sec. 
Writing OUTPUT_TOUR_FILE: "baseline_results/cvrp_lkh/Vrp-Set-M-n151/Vrp-Set-M-n151-lkh/0.lkh1.tour" ... done
* 423: Cost = 0_104995, Time = 1.06 sec. 
Writing OUTPUT_TOUR_FILE: "baseline_results/cvrp_lkh/Vrp-Set-M-n151/Vrp-Set-M-n151-lkh/0.lkh1.tour" ... done
* 586: Cost = 0_104733, Time = 1.42 sec. 
Writing OUTPUT_TOUR_FILE: "baseline_results/cvrp_lkh/Vrp-Set-M-n151/Vrp-Set-M-n151-lkh/0.lkh1.tour" ... done
* 847: Cost = 0_104694, Time = 2.04 sec. 
Writing OUTPUT_TOUR_FILE: "baseline_results/cvrp_lkh/Vrp-Set-M-n151/Vrp-Set-M-n151-lkh/0.lkh1.tour" ... done
* 1363: Cost = 0_104660, Time = 3.43 sec. 
Writing OUTPUT_TOUR_FILE: "baseline_results/cvrp_lkh/Vrp-Set-M-n151/Vrp-Set-M-n151-lkh/0.lkh1.tour" ... done
* 1379: Cost = 0_104613, Time = 3.46 sec. 
Writing OUTPUT_TOUR_FILE: "baseline_results/cvrp_lkh/Vrp-Set-M-n151/Vrp-Set-M-n151-lkh/0.lkh1.tour" ... done
* 1381: Cost = 0_104608, Time = 3.47 sec. 
Writing OUTPUT_TOUR_FILE: "baseline_results/cvrp_lkh/Vrp-Set-M-n151/Vrp-Set-M-n151-lkh/0.lkh1.tour" ... done
* 1386: Cost = 0_104595, Time = 3.47 sec. 
Writing OUTPUT_TOUR_FILE: "baseline_results/cvrp_lkh/Vrp-Set-M-n151/Vrp-Set-M-n151-lkh/0.lkh1.tour" ... done
* 1531: Cost = 0_104556, Time = 3.84 sec. 
Writing OUTPUT_TOUR_FILE: "baseline_results/cvrp_lkh/Vrp-Set-M-n151/Vrp-Set-M-n151-lkh/0.lkh1.tour" ... done
* 2011: Cost = 0_104526, Time = 4.88 sec. 
Writing OUTPUT_TOUR_FILE: "baseline_results/cvrp_lkh/Vrp-Set-M-n151/Vrp-Set-M-n151-lkh/0.lkh1.tour" ... done
* 2014: Cost = 0_104468, Time = 4.89 sec. 
Writing OUTPUT_TOUR_FILE: "baseline_results/cvrp_lkh/Vrp-Set-M-n151/Vrp-Set-M-n151-lkh/0.lkh1.tour" ... done
* 9559: Cost = 0_104208, Time = 20.57 sec. 
Writing OUTPUT_TOUR_FILE: "baseline_results/cvrp_lkh/Vrp-Set-M-n151/Vrp-Set-M-n151-lkh/0.lkh1.tour" ... done
* 9560: Cost = 0_103849, Time = 20.57 sec. 
Writing OUTPUT_TOUR_FILE: "baseline_results/cvrp_lkh/Vrp-Set-M-n151/Vrp-Set-M-n151-lkh/0.lkh1.tour" ... done
* 9561: Cost = 0_103841, Time = 20.57 sec. 
Writing OUTPUT_TOUR_FILE: "baseline_results/cvrp_lkh/Vrp-Set-M-n151/Vrp-Set-M-n151-lkh/0.lkh1.tour" ... done
* 9566: Cost = 0_103785, Time = 20.58 sec. 
Writing OUTPUT_TOUR_FILE: "baseline_results/cvrp_lkh/Vrp-Set-M-n151/Vrp-Set-M-n151-lkh/0.lkh1.tour" ... done
* 9569: Cost = 0_103634, Time = 20.59 sec. 
Writing OUTPUT_TOUR_FILE: "baseline_results/cvrp_lkh/Vrp-Set-M-n151/Vrp-Set-M-n151-lkh/0.lkh1.tour" ... done
* 9586: Cost = 0_103623, Time = 20.63 sec. 
Writing OUTPUT_TOUR_FILE: "baseline_results/cvrp_lkh/Vrp-Set-M-n151/Vrp-Set-M-n151-lkh/0.lkh1.tour" ... done
* 9598: Cost = 0_103546, Time = 20.66 sec. 
Writing OUTPUT_TOUR_FILE: "baseline_results/cvrp_lkh/Vrp-Set-M-n151/Vrp-Set-M-n151-lkh/0.lkh1.tour" ... done
* 9616: Cost = 0_103539, Time = 20.72 sec. 
Writing OUTPUT_TOUR_FILE: "baseline_results/cvrp_lkh/Vrp-Set-M-n151/Vrp-Set-M-n151-lkh/0.lkh1.tour" ... done
* 9623: Cost = 0_103373, Time = 20.74 sec. 
Writing OUTPUT_TOUR_FILE: "baseline_results/cvrp_lkh/Vrp-Set-M-n151/Vrp-Set-M-n151-lkh/0.lkh1.tour" ... done
* 9635: Cost = 0_103318, Time = 20.79 sec. 
Writing OUTPUT_TOUR_FILE: "baseline_results/cvrp_lkh/Vrp-Set-M-n151/Vrp-Set-M-n151-lkh/0.lkh1.tour" ... done
* 9677: Cost = 0_103294, Time = 20.93 sec. 
Writing OUTPUT_TOUR_FILE: "baseline_results/cvrp_lkh/Vrp-Set-M-n151/Vrp-Set-M-n151-lkh/0.lkh1.tour" ... done
* 9795: Cost = 0_103138, Time = 21.29 sec. 
Writing OUTPUT_TOUR_FILE: "baseline_results/cvrp_lkh/Vrp-Set-M-n151/Vrp-Set-M-n151-lkh/0.lkh1.tour" ... done
Population:
  1: 0_103138
Run 1: Cost = 0_103138, Time = 21.99 sec. 

Successes/Runs = 0/1 
Cost.min = 103138, Cost.avg = 103138.00, Cost.max = 103138
Gap.min = 0.0000%, Gap.avg = 0.0000%, Gap.max = 0.0000%
Penalty.min = 0, Penalty.avg = 0.00, Penalty.max = 0
Trials.min = 10000, Trials.avg = 10000.0, Trials.max = 10000
Time.min = 21.99 sec., Time.avg = 21.99 sec., Time.max = 21.99 sec.
Time.total = 22.02 sec.
  Size.min = 2, Size.max = 16, Penalty = 0
  Cost.min = 2129, Cost.max = 12871, Cost.sum = 103138
Best CVRP solution:
  Cost = 0_103138

