experiment/data/lkh-res/Vrp-Set-M-n151/Vrp-Set-M-n151-lkh/0.lkh1.tour
NAME : 0.103138.tour
COMMENT : Length = 103138
COMMENT : Found by LKH-3 [Keld Helsgaun] Tue Apr  9 02:33:07 2024
TYPE : TOUR
DIMENSION : 162
TOUR_SECTION
1
19
115
47
125
48
37
144
50
65
12
108
20
124
8
147
152
28
32
11
109
132
33
91
64
127
63
149
89
128
162
54
41
22
74
73
75
23
134
76
57
5
111
150
27
156
14
96
93
99
38
101
92
86
94
60
95
160
138
3
116
146
42
24
68
40
140
26
56
131
55
139
159
70
102
71
31
21
129
67
72
66
137
36
136
35
79
130
80
161
148
6
85
18
114
87
141
39
44
16
58
145
59
157
90
119
61
84
126
46
9
49
83
107
53
158
112
51
103
34
82
121
10
104
52
123
2
133
153
113
106
155
29
77
117
78
4
122
30
25
135
69
81
151
110
13
154
7
97
100
105
62
17
142
45
120
15
143
43
88
98
118
-1
EOF
